p cnf 8 44 
c Factors encoded in variables 1-6 and 7-8
c Target number: 122
c Factors: 61 x 2
4 7 0
3 1 0
4 3 2 7 0
6 5 4 2 0
5 2 7 0
5 4 3 1 0
-6 5 -4 -2 -1 0
5 4 3 1 7 0
2 -7 0
5 3 2 1 7 0
5 1 0
3 1 7 0
4 -3 -2 0
-1 -7 0
4 -3 -2 7 0
5 1 7 0
6 3 0
6 5 -3 2 0
6 7 0
-6 -5 -4 3 -7 0
-5 4 -3 -2 7 0
2 3 4 5 6 0
6 4 3 0
-6 -5 3 2 0
6 5 4 0
-6 -5 3 1 0
4 2 1 7 0
-5 4 3 0
6 -5 -4 -3 0
8 0
6 5 3 0
-6 -5 -4 -3 -2 -7 0
5 -4 -3 -2 7 0
5 -4 -3 1 0
-2 7 0
6 5 3 2 0
3 7 0
6 5 -4 -3 -2 0
4 1 0
-6 -5 -7 0
-5 3 -7 0
5 3 7 0
6 -3 1 0
1 7 0
